language ESSENCE' 1.0

letting n_courses be 124
letting n_periods be 30
letting prerequisite_RelationAsSet_Explicit_1 be
        [1, 1, 1, 1, 1, 1, 1, 1, 1, 1, 1, 1, 1, 2, 2, 2, 2, 2, 2, 2, 3, 3, 3, 3, 3, 3, 3, 3, 4, 4, 4, 4, 4, 4, 4, 4, 4,
         4, 4, 5, 5, 5, 5, 5, 5, 6, 6, 6, 6, 6, 6, 6, 7, 7, 7, 7, 7, 8, 8, 8, 8, 8, 8, 8, 8, 8, 8, 8, 8, 8, 9, 9, 9, 9,
         9, 9, 10, 10, 10, 10, 10, 10, 10, 10, 10, 10, 10, 11, 11, 11, 11, 11, 11, 11, 11, 11, 11, 11, 12, 12, 12, 12,
         13, 13, 13, 14, 14, 14, 14, 14, 14, 14, 14, 15, 15, 15, 15, 15, 15, 15, 15, 16, 16, 16, 16, 16, 16, 16, 16, 16,
         16, 16, 16, 16, 17, 17, 17, 17, 17, 17, 18, 18, 18, 18, 18, 18, 18, 18, 20, 20, 20, 21, 21, 21, 24, 25, 25, 27,
         27, 27, 28, 28, 29, 29, 30, 30, 31, 32, 32, 33, 33, 34, 34, 34, 34, 34, 35, 35, 37, 37, 37, 39, 39, 40, 40, 44,
         44, 45, 45, 45, 46, 46, 47, 47, 47, 47, 47, 48, 48, 48, 49, 50, 50, 50, 50, 51, 53, 53, 54, 55, 55, 56, 57, 57,
         59, 60, 60, 61, 61, 62, 62, 62, 62, 63, 63, 64, 64, 65, 65, 65, 67, 68, 68, 68, 68, 69, 70, 71, 71, 72, 72, 73,
         73, 75, 75, 76, 76, 77, 79, 80, 81, 81, 81, 81, 81, 82, 82, 82, 82, 83, 84, 86, 86, 86;
             int(1..264)]
letting prerequisite_RelationAsSet_Explicit_2 be
        [34, 35, 39, 44, 49, 52, 53, 68, 69, 76, 78, 79, 84, 29, 31, 34, 44, 45, 59, 75, 23, 35, 36, 54, 55, 62, 65, 84,
         21, 22, 27, 39, 40, 43, 47, 54, 55, 61, 84, 22, 35, 39, 42, 71, 81, 19, 25, 30, 60, 61, 67, 72, 48, 51, 71, 82,
         83, 19, 34, 36, 41, 44, 53, 56, 57, 58, 60, 66, 73, 82, 38, 45, 68, 77, 84, 86, 21, 26, 30, 37, 38, 50, 64, 67,
         69, 72, 81, 28, 29, 32, 35, 56, 58, 66, 80, 81, 85, 86, 31, 33, 61, 64, 34, 50, 70, 39, 43, 47, 53, 62, 68, 70,
         76, 19, 24, 33, 41, 49, 51, 71, 80, 25, 31, 32, 37, 45, 46, 49, 53, 58, 69, 77, 78, 83, 20, 38, 50, 63, 80, 83,
         27, 48, 56, 61, 69, 74, 79, 83, 87, 94, 116, 106, 120, 121, 117, 90, 118, 87, 105, 118, 112, 113, 97, 105, 116,
         122, 106, 102, 115, 117, 118, 89, 93, 113, 116, 119, 99, 101, 93, 96, 103, 106, 108, 98, 105, 113, 120, 92,
         114, 123, 108, 124, 93, 101, 109, 115, 124, 89, 93, 98, 117, 96, 100, 105, 110, 92, 106, 116, 87, 103, 123,
         124, 100, 107, 114, 97, 112, 97, 109, 88, 92, 103, 114, 95, 114, 93, 113, 91, 102, 112, 97, 102, 107, 118, 123,
         113, 115, 99, 120, 103, 121, 89, 103, 103, 108, 94, 95, 95, 113, 104, 89, 94, 100, 112, 122, 97, 112, 115, 124,
         111, 113, 101, 116, 119;
             int(1..264)]
letting course_load_Function1D be
        [4, 5, 5, 5, 5, 3, 6, 4, 4, 6, 7, 8, 5, 6, 6, 3, 3, 5, 7, 4, 7, 4, 5, 4, 3, 4, 7, 7, 7, 3, 8, 3, 5, 6, 3, 7, 5,
         5, 5, 7, 5, 4, 3, 6, 5, 3, 4, 3, 4, 3, 5, 4, 5, 6, 4, 4, 3, 5, 8, 4, 3, 3, 6, 5, 8, 6, 5, 6, 7, 7, 7, 8, 8, 3,
         4, 4, 8, 8, 8, 6, 4, 5, 6, 7, 6, 6, 5, 6, 5, 8, 5, 5, 8, 4, 5, 4, 7, 8, 7, 6, 8, 6, 8, 3, 4, 7, 4, 3, 4, 4, 7,
         4, 7, 3, 4, 4, 5, 3, 3, 7, 5, 7, 7, 3;
             int(1..124)]
letting load_per_period_ub be 47
letting load_per_period_lb be 8
letting courses_per_period_ub be 9
letting courses_per_period_lb be 4
letting fin1 be 264
letting fin2 be 124
letting fin3 be 8
